maximize
obj: 1 x_(1,_5)_ + 1 x_(1,_6)_ + 1 x_(2,_7)_ + 1 x_(2,_6)_ + 1 x_(3,_7)_ + 1 x_(3,_6)_ + 1 x_(4,_8)_ + 1 x_(4,_7)_
subject to
c1: 1 x_(1,_5)_ + 1 x_(1,_6)_ <= 1
c2: 1 x_(2,_7)_ + 1 x_(2,_6)_ <= 1
c3: 1 x_(3,_7)_ + 1 x_(3,_6)_ <= 1
c4: 1 x_(4,_8)_ + 1 x_(4,_7)_ <= 1
c5: 1 x_(1,_5)_ <= 1
c6: 1 x_(1,_6)_ + 1 x_(2,_6)_ + 1 x_(3,_6)_ <= 1
c7: 1 x_(2,_7)_ + 1 x_(3,_7)_ + 1 x_(4,_7)_ <= 1
c8: 1 x_(4,_8)_ <= 1
Bounds
Binary
x_(1,_5)_
x_(1,_6)_
x_(2,_7)_
x_(2,_6)_
x_(3,_7)_
x_(3,_6)_
x_(4,_8)_
x_(4,_7)_
End
